\ LP format - for model browsing. Use MPS format to capture full model detail.
Maximize
 [ 10 x[0] ^2 + 18 x[0] * x[1] - 6 x[0] * x[2] - 10 x[0] * x[3]
   - 8 x[0] * x[4] - 12 x[0] * x[5] - 8 x[0] * x[6] + 20 x[0] * x[7]
   + 4 x[0] * x[8] + 16 x[0] * x[9] - 12 x[0] * x[10] - 4 x[0] * x[11]
   + 8 x[0] * x[12] + 8 x[0] * x[13] - 18 x[0] * x[14] - 18 x[0] * x[15]
   - 4 x[0] * x[16] - 8 x[0] * x[17] + 10 x[0] * x[18] - 4 x[0] * x[19]
   - 2 x[1] ^2 - 14 x[1] * x[2] - 18 x[1] * x[3] + 6 x[1] * x[4]
   + 6 x[1] * x[6] - 6 x[1] * x[7] + 16 x[1] * x[8] + 18 x[1] * x[9]
   - 18 x[1] * x[10] + 2 x[1] * x[11] + 4 x[1] * x[12] - 14 x[1] * x[13]
   + 10 x[1] * x[14] - 6 x[1] * x[15] - 18 x[1] * x[16] + 4 x[1] * x[17]
   + 4 x[1] * x[18] - 4 x[1] * x[19] + 14 x[2] ^2 + 18 x[2] * x[4]
   - 20 x[2] * x[5] - 12 x[2] * x[6] - 8 x[2] * x[7] + 2 x[2] * x[8]
   - 16 x[2] * x[9] - 4 x[2] * x[10] + 14 x[2] * x[11] + 12 x[2] * x[12]
   + 8 x[2] * x[13] + 6 x[2] * x[14] + 12 x[2] * x[15] + 18 x[2] * x[16]
   - 16 x[2] * x[17] + 12 x[2] * x[18] + 8 x[2] * x[19] - 2 x[3] * x[4]
   - 14 x[3] * x[5] + 18 x[3] * x[6] - 20 x[3] * x[7] + 6 x[3] * x[8]
   - 8 x[3] * x[9] - 6 x[3] * x[10] + 2 x[3] * x[11] - 6 x[3] * x[12]
   - 16 x[3] * x[13] + 20 x[3] * x[14] + 16 x[3] * x[16] - 10 x[3] * x[17]
   + 12 x[3] * x[18] + 10 x[3] * x[19] + 20 x[4] ^2 + 8 x[4] * x[5]
   + 4 x[4] * x[6] + 12 x[4] * x[7] - 2 x[4] * x[8] + 18 x[4] * x[9]
   - 18 x[4] * x[10] + 18 x[4] * x[11] - 8 x[4] * x[12] + 2 x[4] * x[13]
   + 18 x[4] * x[14] - 8 x[4] * x[15] + 14 x[4] * x[16] - 8 x[4] * x[18]
   - 14 x[4] * x[19] + 12 x[5] ^2 + 14 x[5] * x[6] - 10 x[5] * x[7]
   + 6 x[5] * x[8] - 20 x[5] * x[9] - 18 x[5] * x[10] - 2 x[5] * x[11]
   + 8 x[5] * x[12] - 6 x[5] * x[13] - 2 x[5] * x[14] + 4 x[5] * x[15]
   - 20 x[5] * x[16] + 8 x[5] * x[17] + 4 x[5] * x[18] + 14 x[5] * x[19]
   - 14 x[6] ^2 - 10 x[6] * x[7] - 18 x[6] * x[8] - 18 x[6] * x[9]
   + 6 x[6] * x[10] + 18 x[6] * x[11] - 2 x[6] * x[12] + 18 x[6] * x[13]
   + 4 x[6] * x[14] - 8 x[6] * x[15] - 10 x[6] * x[16] - 12 x[6] * x[17]
   + 20 x[6] * x[18] - 4 x[6] * x[19] - 18 x[7] ^2 - 16 x[7] * x[8]
   + 6 x[7] * x[10] - 12 x[7] * x[11] - 6 x[7] * x[12] + 4 x[7] * x[13]
   + 10 x[7] * x[14] + 4 x[7] * x[15] + 18 x[7] * x[16] + 16 x[7] * x[17]
   - 16 x[7] * x[18] - 10 x[7] * x[19] - 16 x[8] ^2 + 14 x[8] * x[9]
   - 18 x[8] * x[10] - 16 x[8] * x[11] - 6 x[8] * x[12] - 4 x[8] * x[13]
   + 8 x[8] * x[14] + 2 x[8] * x[15] - 2 x[8] * x[16] + 16 x[8] * x[17]
   - 6 x[8] * x[19] + 4 x[9] ^2 - 8 x[9] * x[11] - 4 x[9] * x[12]
   + 8 x[9] * x[13] + 4 x[9] * x[14] - 14 x[9] * x[15] + 12 x[9] * x[16]
   + 8 x[9] * x[17] + 16 x[9] * x[18] + 20 x[9] * x[19] - 16 x[10] ^2
   + 16 x[10] * x[11] + 12 x[10] * x[12] - 10 x[10] * x[13]
   + 8 x[10] * x[14] + 8 x[10] * x[15] + 2 x[10] * x[16] - 20 x[10] * x[17]
   - 16 x[10] * x[18] - 20 x[10] * x[19] - 10 x[11] ^2 - 16 x[11] * x[12]
   + 20 x[11] * x[13] + 2 x[11] * x[14] + 20 x[11] * x[15]
   + 18 x[11] * x[16] - 6 x[11] * x[17] - 14 x[11] * x[18]
   + 16 x[11] * x[19] + 12 x[12] ^2 + 20 x[12] * x[13] + 18 x[12] * x[14]
   - 18 x[12] * x[15] - 20 x[12] * x[17] + 10 x[12] * x[18]
   - 10 x[12] * x[19] - 10 x[13] ^2 + 20 x[13] * x[15] + 6 x[13] * x[16]
   - 10 x[13] * x[17] - 4 x[13] * x[18] + 10 x[13] * x[19] + 14 x[14] ^2
   + 8 x[14] * x[15] + 6 x[14] * x[16] - 6 x[14] * x[17] - 14 x[14] * x[18]
   - 14 x[14] * x[19] + 2 x[15] ^2 + 16 x[15] * x[16] - 10 x[15] * x[17]
   - 20 x[15] * x[18] + 16 x[15] * x[19] - 16 x[16] ^2 - 10 x[16] * x[17]
   + 16 x[16] * x[18] - 4 x[16] * x[19] + 20 x[17] ^2 + 16 x[17] * x[18]
   - 2 x[17] * x[19] - 8 x[18] ^2 - 14 x[18] * x[19] - 20 x[19] ^2 ] / 2 
Subject To
 x_1,12,14: x[0] + x[11] + x[13] <= 2
 x_2,3,7: x[1] + x[2] + x[6] <= 2
 x_3,14,20: x[2] + x[13] + x[19] <= 2
 x_4,5,13: x[3] + x[4] + x[12] <= 2
 x_5,6,16: x[4] + x[5] + x[15] <= 2
 x_6,7,19: x[5] + x[6] + x[18] <= 2
 x_7,12,18: x[6] + x[11] + x[17] <= 2
 x_5,8,9: x[4] + x[7] + x[8] <= 2
 x_9,18,20: x[8] + x[17] + x[19] <= 2
 x_10,11,12: x[9] + x[10] + x[11] <= 2
 x_2,4,11: x[1] + x[3] + x[10] <= 2
 x_12,13,17: x[11] + x[12] + x[16] <= 2
 x_4,10,13: x[3] + x[9] + x[12] <= 2
 x_3,14,15: x[2] + x[13] + x[14] <= 2
 x_6,15,16: x[5] + x[14] + x[15] <= 2
 x_9,16,17: x[8] + x[15] + x[16] <= 2
 x_2,8,17: x[1] + x[7] + x[16] <= 2
 x_15,18,19: x[14] + x[17] + x[18] <= 2
 x_8,10,19: x[7] + x[9] + x[18] <= 2
 x_1,2,20: x[0] + x[1] + x[19] <= 2
Bounds
Binaries
 x[0] x[1] x[2] x[3] x[4] x[5] x[6] x[7] x[8] x[9] x[10] x[11] x[12] x[13]
 x[14] x[15] x[16] x[17] x[18] x[19]
End
